 data;
 set N := 1 2 3 4 5 6 7 8 9 10 11 12 13 14;
 set E :=
 (1,7)
 (1,10)
 (2,8)
 (2,9)
 (2,11)
 (3,5)
 (3,10)
 (3,12)
 (4,6)
 (4,11)
 (5,11)
 (5,13)
 (6,12)
 (6,14)
 (7,9)
 (7,13)
 (8,10)
 (8,14)
 (9,14)
 (12,13);